p cnf 203 308
2 0
-3 -35 -67 0
3 35 -67 0
-3 35 67 0
3 -35 67 0
-4 -36 -68 0
4 36 -68 0
-4 36 68 0
4 -36 68 0
-5 -37 -69 0
5 37 -69 0
-5 37 69 0
5 -37 69 0
-6 -38 -70 0
6 38 -70 0
-6 38 70 0
6 -38 70 0
-7 -39 -71 0
7 39 -71 0
-7 39 71 0
7 -39 71 0
-8 -40 -72 0
8 40 -72 0
-8 40 72 0
8 -40 72 0
-9 -41 -73 0
9 41 -73 0
-9 41 73 0
9 -41 73 0
-10 -42 -74 0
10 42 -74 0
-10 42 74 0
10 -42 74 0
-11 -43 -75 0
11 43 -75 0
-11 43 75 0
11 -43 75 0
-12 -44 -76 0
12 44 -76 0
-12 44 76 0
12 -44 76 0
-13 -45 -77 0
13 45 -77 0
-13 45 77 0
13 -45 77 0
-14 -46 -78 0
14 46 -78 0
-14 46 78 0
14 -46 78 0
-15 -47 -79 0
15 47 -79 0
-15 47 79 0
15 -47 79 0
-16 -48 -80 0
16 48 -80 0
-16 48 80 0
16 -48 80 0
-17 -49 -81 0
17 49 -81 0
-17 49 81 0
17 -49 81 0
-18 -50 -82 0
18 50 -82 0
-18 50 82 0
18 -50 82 0
-19 -51 -83 0
19 51 -83 0
-19 51 83 0
19 -51 83 0
-20 -52 -84 0
20 52 -84 0
-20 52 84 0
20 -52 84 0
-21 -53 -85 0
21 53 -85 0
-21 53 85 0
21 -53 85 0
-22 -54 -86 0
22 54 -86 0
-22 54 86 0
22 -54 86 0
-23 -55 -87 0
23 55 -87 0
-23 55 87 0
23 -55 87 0
-24 -56 -88 0
24 56 -88 0
-24 56 88 0
24 -56 88 0
-25 -57 -89 0
25 57 -89 0
-25 57 89 0
25 -57 89 0
-26 -58 -90 0
26 58 -90 0
-26 58 90 0
26 -58 90 0
-27 -59 -91 0
27 59 -91 0
-27 59 91 0
27 -59 91 0
-28 -60 -92 0
28 60 -92 0
-28 60 92 0
28 -60 92 0
-29 -61 -93 0
29 61 -93 0
-29 61 93 0
29 -61 93 0
-30 -62 -94 0
30 62 -94 0
-30 62 94 0
30 -62 94 0
-31 -63 -95 0
31 63 -95 0
-31 63 95 0
31 -63 95 0
-32 -64 -96 0
32 64 -96 0
-32 64 96 0
32 -64 96 0
-33 -65 -97 0
33 65 -97 0
-33 65 97 0
33 -65 97 0
-34 -66 -98 0
34 66 -98 0
-34 66 98 0
34 -66 98 0
-67 -99 0
-68 -99 0
-69 -99 0
-70 -99 0
-71 -99 0
-72 -99 0
-73 -99 0
-74 -99 0
-75 -99 0
-76 -99 0
-77 -99 0
-78 -99 0
-79 -99 0
-80 -99 0
-81 -99 0
-82 -99 0
-83 -99 0
-84 -99 0
-85 -99 0
-86 -99 0
-87 -99 0
-88 -99 0
-89 -99 0
-90 -99 0
-91 -99 0
-92 -99 0
-93 -99 0
-94 -99 0
-95 -99 0
-96 -99 0
-97 -99 0
-98 -99 0
67 68 69 70 71 72 73 74 75 76 77 78 79 80 81 82 83 84 85 86 87 88 89 90 91 92 93 94 95 96 97 98 99 0
-1 -99 -100 0
1 99 -100 0
-1 99 100 0
1 -99 100 0
-100 0
3 -133 0
-3 133 0
4 -134 0
-4 134 0
5 -135 0
-5 135 0
6 -136 0
-6 136 0
7 -137 0
-7 137 0
8 -138 0
-8 138 0
9 -139 0
-9 139 0
10 -140 0
-10 140 0
11 -141 0
-11 141 0
12 -142 0
-12 142 0
13 -143 0
-13 143 0
14 -144 0
-14 144 0
15 -145 0
-15 145 0
16 -146 0
-16 146 0
17 -147 0
-17 147 0
18 -148 0
-18 148 0
19 -149 0
-19 149 0
20 -150 0
-20 150 0
21 -151 0
-21 151 0
22 -152 0
-22 152 0
23 -153 0
-23 153 0
24 -154 0
-24 154 0
25 -155 0
-25 155 0
26 -156 0
-26 156 0
27 -157 0
-27 157 0
28 -158 0
-28 158 0
29 -159 0
-29 159 0
30 -160 0
-30 160 0
31 -161 0
-31 161 0
32 -162 0
-32 162 0
33 -163 0
-33 163 0
34 -164 0
-34 164 0
35 -165 0
-35 165 0
36 -166 0
-36 166 0
37 -167 0
-37 167 0
38 -168 0
-38 168 0
39 -169 0
-39 169 0
40 -170 0
-40 170 0
41 -171 0
-41 171 0
42 -172 0
-42 172 0
43 -173 0
-43 173 0
44 -174 0
-44 174 0
45 -175 0
-45 175 0
46 -176 0
-46 176 0
47 -177 0
-47 177 0
48 -178 0
-48 178 0
49 -179 0
-49 179 0
50 -180 0
-50 180 0
51 -181 0
-51 181 0
52 -182 0
-52 182 0
53 -183 0
-53 183 0
54 -184 0
-54 184 0
55 -185 0
-55 185 0
56 -186 0
-56 186 0
57 -187 0
-57 187 0
58 -188 0
-58 188 0
59 -189 0
-59 189 0
60 -190 0
-60 190 0
61 -191 0
-61 191 0
62 -192 0
-62 192 0
63 -193 0
-63 193 0
64 -194 0
-64 194 0
65 -195 0
-65 195 0
66 -196 0
-66 196 0
-197 -199 -201 0
197 199 -201 0
-197 199 201 0
197 -199 201 0
-198 -200 -202 0
198 200 -202 0
-198 200 202 0
198 -200 202 0
-201 -203 0
-202 -203 0
201 202 203 0
-2 203 0
2 -203 0
c __CPROVER_malloc_is_new_array#1 FALSE
c goto_symex::\guard#1 1
c symex::io::0 133 134 135 136 137 138 139 140 141 142 143 144 145 146 147 148 149 150 151 152 153 154 155 156 157 158 159 160 161 162 163 164
c check::1::__return_value!0@1#1 101 102 103 104 105 106 107 108 109 110 111 112 113 114 115 116 117 118 119 120 121 122 123 124 125 126 127 128 129 130 131 132
c check::1::__return_value!0@1#2 1 FALSE FALSE FALSE FALSE FALSE FALSE FALSE FALSE FALSE FALSE FALSE FALSE FALSE FALSE FALSE FALSE FALSE FALSE FALSE FALSE FALSE FALSE FALSE FALSE FALSE FALSE FALSE FALSE FALSE FALSE FALSE
c _start::h!0#1 35 36 37 38 39 40 41 42 43 44 45 46 47 48 49 50 51 52 53 54 55 56 57 58 59 60 61 62 63 64 65 66
c check::l!0@1#1 3 4 5 6 7 8 9 10 11 12 13 14 15 16 17 18 19 20 21 22 23 24 25 26 27 28 29 30 31 32 33 34
c __CPROVER_malloc_object#1 FALSE FALSE FALSE FALSE FALSE FALSE FALSE FALSE FALSE FALSE FALSE FALSE FALSE FALSE FALSE FALSE FALSE FALSE FALSE FALSE FALSE FALSE FALSE FALSE FALSE FALSE FALSE FALSE FALSE FALSE FALSE FALSE
c symex::io::1 165 166 167 168 169 170 171 172 173 174 175 176 177 178 179 180 181 182 183 184 185 186 187 188 189 190 191 192 193 194 195 196
c _start::l!0#1 3 4 5 6 7 8 9 10 11 12 13 14 15 16 17 18 19 20 21 22 23 24 25 26 27 28 29 30 31 32 33 34
c check::h!0@1#1 35 36 37 38 39 40 41 42 43 44 45 46 47 48 49 50 51 52 53 54 55 56 57 58 59 60 61 62 63 64 65 66
c __CPROVER_deallocated#1 FALSE FALSE FALSE FALSE FALSE FALSE FALSE FALSE FALSE FALSE FALSE FALSE FALSE FALSE FALSE FALSE FALSE FALSE FALSE FALSE FALSE FALSE FALSE FALSE FALSE FALSE FALSE FALSE FALSE FALSE FALSE FALSE
c check::l!0@1#2 TRUE FALSE FALSE FALSE FALSE FALSE FALSE FALSE FALSE FALSE FALSE FALSE FALSE FALSE FALSE FALSE FALSE FALSE FALSE FALSE FALSE FALSE FALSE FALSE FALSE FALSE FALSE FALSE FALSE FALSE FALSE FALSE
c __CPROVER_malloc_size#1 FALSE FALSE FALSE FALSE FALSE FALSE FALSE FALSE FALSE FALSE FALSE FALSE FALSE FALSE FALSE FALSE FALSE FALSE FALSE FALSE FALSE FALSE FALSE FALSE FALSE FALSE FALSE FALSE FALSE FALSE FALSE FALSE
c __CPROVER_dead_object#1 FALSE FALSE FALSE FALSE FALSE FALSE FALSE FALSE FALSE FALSE FALSE FALSE FALSE FALSE FALSE FALSE FALSE FALSE FALSE FALSE FALSE FALSE FALSE FALSE FALSE FALSE FALSE FALSE FALSE FALSE FALSE FALSE
c check::l!0@1#3 3 4 5 6 7 8 9 10 11 12 13 14 15 16 17 18 19 20 21 22 23 24 25 26 27 28 29 30 31 32 33 34
c __CPROVER_memory_leak#1 FALSE FALSE FALSE FALSE FALSE FALSE FALSE FALSE FALSE FALSE FALSE FALSE FALSE FALSE FALSE FALSE FALSE FALSE FALSE FALSE FALSE FALSE FALSE FALSE FALSE FALSE FALSE FALSE FALSE FALSE FALSE FALSE
c check::l!0@1#4 FALSE FALSE FALSE FALSE FALSE FALSE FALSE FALSE FALSE FALSE FALSE FALSE FALSE FALSE FALSE FALSE FALSE FALSE FALSE FALSE FALSE FALSE FALSE FALSE FALSE FALSE FALSE FALSE FALSE FALSE FALSE FALSE
c __CPROVER_next_thread_id#1 FALSE FALSE FALSE FALSE FALSE FALSE FALSE FALSE FALSE FALSE FALSE FALSE FALSE FALSE FALSE FALSE FALSE FALSE FALSE FALSE FALSE FALSE FALSE FALSE FALSE FALSE FALSE FALSE FALSE FALSE FALSE FALSE
c check::l!0@1#5 1 FALSE FALSE FALSE FALSE FALSE FALSE FALSE FALSE FALSE FALSE FALSE FALSE FALSE FALSE FALSE FALSE FALSE FALSE FALSE FALSE FALSE FALSE FALSE FALSE FALSE FALSE FALSE FALSE FALSE FALSE FALSE
c __CPROVER_pipe_count#1 FALSE FALSE FALSE FALSE FALSE FALSE FALSE FALSE FALSE FALSE FALSE FALSE FALSE FALSE FALSE FALSE FALSE FALSE FALSE FALSE FALSE FALSE FALSE FALSE FALSE FALSE FALSE FALSE FALSE FALSE FALSE FALSE
c __CPROVER_rounding_mode!0#1 FALSE FALSE FALSE FALSE FALSE FALSE FALSE FALSE FALSE FALSE FALSE FALSE FALSE FALSE FALSE FALSE FALSE FALSE FALSE FALSE FALSE FALSE FALSE FALSE FALSE FALSE FALSE FALSE FALSE FALSE FALSE FALSE
c __CPROVER_thread_id!0#1 FALSE FALSE FALSE FALSE FALSE FALSE FALSE FALSE FALSE FALSE FALSE FALSE FALSE FALSE FALSE FALSE FALSE FALSE FALSE FALSE FALSE FALSE FALSE FALSE FALSE FALSE FALSE FALSE FALSE FALSE FALSE FALSE
c ind 1 0
cr 1
